1.000000 1.000000 1.000000
5
5 2 3 4 5 6 
5 7 8 9 10 11 
5 12 13 14 15 16 
5 17 18 19 20 21 
5 22 23 24 25 26 
1 1 
1 2 
1 2 
1 2 
1 2 
1 2 
1 2 
1 2 
1 2 
1 2 
1 2 
1 2 
1 2 
1 2 
1 2 
1 2 
1 2 
1 2 
1 2 
1 2 
1 2 
1 2 
1 2 
1 2 
1 2 
1 2 
1 2 
1 2 
1 2 
1 2 
1 2 
1 2 
1 2 
1 2 
1 2 
1 2 
1 2 
1 2 
1 2 
1 2 
1 2 
1 2 
1 2 
1 2 
1 2 
1 2 
1 2 
1 2 
1 2 
1 2 
1 2 
1 2 
1 2 
1 3 
1 3 
1 3 
1 3 
1 3 
1 3 
1 3 
1 3 
1 3 
1 3 
1 3 
1 3 
1 3 
1 3 
1 3 
1 3 
1 3 
1 3 
1 3 
1 3 
1 3 
1 3 
1 3 
1 3 
1 3 
1 3 
1 3 
1 3 
1 3 
1 3 
1 3 
1 3 
1 3 
1 3 
1 3 
1 3 
1 3 
1 3 
1 3 
1 3 
1 3 
1 3 
1 3 
1 3 
1 3 
1 3 
1 3 
1 3 
1 3 
1 3 
1 3 
1 3 
1 4 
1 4 
1 4 
1 4 
1 4 
1 4 
1 4 
1 4 
1 4 
1 4 
1 4 
1 4 
1 4 
1 4 
1 4 
1 4 
1 4 
1 4 
1 4 
1 4 
1 4 
1 4 
1 4 
1 4 
1 4 
1 4 
1 4 
1 4 
1 4 
1 4 
1 4 
1 4 
1 4 
1 4 
1 4 
1 4 
1 4 
1 4 
1 4 
1 4 
1 4 
1 4 
1 4 
1 4 
1 4 
1 4 
1 4 
1 4 
1 4 
1 4 
1 4 
1 4 
1 5 
1 5 
1 5 
1 5 
1 5 
1 5 
1 5 
1 5 
1 5 
1 5 
1 5 
1 5 
1 6 
1 6 
1 6 
1 6 
1 6 
1 6 
1 6 
1 6 
1 6 
1 6 
1 6 
1 6 
1 6 
1 6 
1 6 
1 6 
1 6 
1 6 
1 6 
1 6 
1 6 
1 6 
1 6 
1 6 
1 6 
1 6 
1 6 
1 6 
1 6 
1 6 
1 6 
1 6 
1 6 
1 6 
1 6 
1 6 
1 6 
1 6 
1 6 
1 6 
1 6 
1 6 
1 6 
1 6 
1 6 
1 6 
1 6 
1 6 
1 6 
1 6 
1 6 
1 6 
1 7 
1 7 
1 7 
2 7 4 
1 7 
1 7 
1 7 
2 7 4 
1 7 
1 7 
1 7 
2 7 4 
1 7 
1 7 
2 7 4 
2 7 4 
1 7 
2 7 4 
2 7 4 
2 7 4 
2 7 4 
1 7 
2 7 4 
1 7 
2 7 4 
2 7 4 
2 7 4 
2 7 4 
2 7 4 
2 7 4 
2 7 4 
2 7 4 
2 7 4 
2 7 4 
2 7 4 
2 7 4 
2 7 4 
2 7 4 
2 7 4 
2 7 4 
2 7 4 
2 7 4 
1 8 
1 8 
1 8 
1 8 
1 8 
1 8 
1 8 
1 8 
1 8 
1 8 
1 8 
1 8 
1 8 
1 8 
1 8 
1 8 
1 8 
1 8 
1 8 
1 8 
1 8 
1 8 
1 8 
1 8 
1 8 
1 8 
1 8 
1 8 
1 8 
1 8 
1 8 
1 8 
1 8 
1 8 
1 8 
1 8 
1 8 
1 8 
1 8 
1 8 
1 8 
1 8 
1 9 
1 9 
1 9 
1 9 
1 9 
1 9 
1 9 
1 9 
1 9 
1 9 
1 9 
1 9 
1 9 
1 9 
1 9 
1 9 
2 9 5 
1 9 
1 9 
1 9 
1 9 
2 9 5 
1 9 
2 9 5 
1 9 
1 9 
2 9 5 
1 9 
2 9 5 
1 9 
2 9 5 
2 9 5 
2 9 5 
2 9 5 
1 9 
2 9 5 
2 9 5 
2 9 5 
2 9 5 
2 9 5 
1 9 
2 9 5 
1 10 
1 10 
1 10 
1 10 
1 10 
1 10 
1 10 
1 10 
1 10 
1 10 
1 10 
1 10 
1 11 
1 11 
1 11 
1 11 
1 11 
2 11 3 
1 11 
1 11 
2 11 3 
2 11 3 
1 11 
1 11 
2 11 3 
1 11 
2 11 3 
2 11 3 
2 11 3 
2 11 3 
2 11 3 
2 11 3 
2 11 3 
2 11 3 
2 11 3 
2 11 3 
2 11 3 
2 11 3 
2 11 3 
2 11 3 
2 11 3 
2 11 3 
2 11 3 
2 11 3 
2 11 3 
2 11 3 
2 11 3 
2 11 3 
2 11 3 
2 11 3 
2 11 3 
2 11 3 
2 11 3 
2 11 3 
1 12 
1 12 
1 12 
1 12 
1 12 
1 12 
1 12 
1 12 
1 12 
1 12 
1 12 
1 12 
1 12 
1 12 
1 12 
1 12 
1 12 
1 12 
1 12 
1 12 
1 12 
1 12 
1 12 
1 12 
1 12 
1 12 
1 12 
1 12 
2 12 6 
1 12 
1 12 
2 12 6 
1 13 
1 13 
1 13 
1 13 
1 13 
1 13 
1 13 
1 13 
1 13 
1 13 
1 13 
1 13 
1 13 
1 13 
1 13 
1 13 
1 13 
1 13 
1 13 
1 13 
1 13 
1 13 
1 13 
1 13 
1 13 
1 13 
1 13 
1 13 
1 13 
1 13 
1 13 
1 13 
1 14 
1 14 
1 14 
1 14 
1 14 
1 14 
1 14 
1 14 
1 14 
1 14 
1 14 
1 14 
1 14 
1 14 
1 14 
1 14 
1 14 
1 14 
1 14 
1 14 
1 14 
1 14 
1 14 
1 14 
1 14 
1 14 
1 14 
1 14 
1 14 
1 14 
1 14 
1 14 
1 15 
2 15 14 
2 15 7 
2 15 8 
2 15 14 
4 15 7 8 14 
4 15 7 8 14 
3 15 7 14 
2 15 14 
1 15 
1 15 
4 15 7 8 14 
1 16 
1 16 
1 16 
1 16 
1 16 
1 16 
1 16 
1 16 
1 16 
1 16 
1 16 
1 16 
1 16 
1 16 
1 16 
1 16 
1 16 
1 16 
1 16 
1 16 
1 16 
1 16 
1 16 
1 16 
1 16 
1 16 
1 16 
1 16 
1 16 
1 16 
1 16 
1 16 
1 17 
1 17 
1 17 
1 17 
1 17 
1 17 
1 17 
1 17 
1 17 
1 17 
1 17 
1 17 
1 17 
1 17 
1 17 
1 17 
1 17 
1 17 
1 17 
1 17 
1 17 
1 17 
1 18 
1 18 
2 18 16 
1 18 
1 18 
2 18 16 
2 18 16 
1 18 
1 18 
1 18 
1 18 
2 18 16 
1 19 
1 19 
1 19 
1 19 
1 19 
1 19 
1 19 
1 19 
1 19 
1 19 
1 19 
1 19 
1 19 
1 19 
1 19 
1 19 
1 19 
2 19 11 
1 19 
1 19 
1 19 
2 19 11 
1 20 
1 20 
1 20 
1 20 
1 20 
1 20 
2 20 10 
1 20 
2 20 10 
1 20 
1 20 
1 20 
2 20 10 
2 20 17 
1 20 
3 20 10 17 
2 20 10 
2 20 10 
2 20 10 
2 20 2 
1 20 
4 20 2 10 17 
1 21 
1 21 
1 21 
1 21 
1 21 
1 21 
1 21 
1 21 
1 21 
1 21 
1 21 
1 21 
1 21 
1 21 
1 21 
1 21 
1 21 
1 21 
1 21 
1 21 
1 21 
1 21 
1 22 
2 22 20 
1 22 
4 22 15 7 14 
1 22 
2 22 20 
3 22 19 20 
1 22 
6 22 15 7 14 19 20 
4 22 15 7 14 
2 22 20 
6 22 15 7 14 19 20 
1 23 
1 23 
1 23 
1 23 
1 23 
3 23 22 20 
1 23 
1 23 
2 23 21 
2 23 9 
1 23 
5 23 9 21 22 20 
1 24 
1 24 
1 24 
1 24 
1 24 
1 24 
1 24 
2 24 13 
1 24 
1 24 
1 24 
2 24 13 
1 25 
1 25 
4 25 23 22 20 
3 25 12 24 
7 25 12 18 23 22 20 24 
3 25 12 24 
4 25 23 22 20 
1 25 
7 25 12 18 23 22 20 24 
7 25 12 18 23 22 20 24 
6 25 12 23 22 20 24 
7 25 12 18 23 22 20 24 
1 26 
1 26 
8 26 25 12 18 23 22 20 24 
1 26 
8 26 25 12 18 23 22 20 24 
8 26 25 12 18 23 22 20 24 
1 26 
1 26 
1 26 
1 26 
1 26 
8 26 25 12 18 23 22 20 24 
1 1 
